# Solution for model GasLib-40
# Objective value = 1.3124801741840084e+01
loadshed[innode_1] 0
loadshed[innode_2] 0
loadshed[innode_3] 0
loadshed[innode_4] 0
loadshed[innode_5] 0
loadshed[innode_6] 0
loadshed[innode_7] 0
loadshed[innode_8] 0
loadshed[source_1] -2.4462369409883844e-01
loadshed[source_2] 0.141700046308054
loadshed[source_3] 1.8594457688464860e-01
loadshed[sink_1] 0
loadshed[sink_2] 0
loadshed[sink_3] 0
loadshed[sink_4] 0
loadshed[sink_5] 0
loadshed[sink_6] 0
loadshed[sink_7] 0
loadshed[sink_8] 0
loadshed[sink_9] 0
loadshed[sink_10] 0
loadshed[sink_11] 0
loadshed[sink_12] 0.802535647908693
loadshed[sink_13] 0
loadshed[sink_14] 0
loadshed[sink_15] 0
loadshed[sink_16] 0
loadshed[sink_17] 0
loadshed[sink_18] 0
loadshed[sink_19] 0
loadshed[sink_20] 0
loadshed[sink_21] 0
loadshed[sink_22] 0
loadshed[sink_23] 0
loadshed[sink_24] 0
loadshed[sink_25] 0
loadshed[sink_26] 0
loadshed[sink_27] 0
loadshed[sink_28] 0
loadshed[sink_29] 0
flow[source_1,sink_3] 1.9676290552888929e+02
flow[innode_1,sink_16] 1.6354166666666970e+01
flow[innode_6,sink_13] -1.4215081300146039e+01
flow[sink_13,sink_14] -3.0569247966812707e+01
flow[sink_14,sink_10] -4.6923414633479375e+01
flow[sink_25,sink_26] 1.7835976957607784e+02
flow[sink_26,sink_9] 1.5041686492482751e+02
flow[sink_9,sink_18] 1.3406269825816085e+02
flow[sink_26,sink_4] 1.1588737984583673e+01
flow[sink_4,sink_20] -1.6394576400704363e+01
flow[sink_18,sink_6] 1.1770853159149419e+02
flow[sink_25,innode_8] -1.6405457219555291e+02
flow[sink_6,sink_7] 6.8646031591493738e+01
flow[sink_6,sink_22] 3.2708333333333641e+01
flow[sink_7,sink_24] 3.5937698258159919e+01
flow[sink_22,sink_1] 1.6354166666666970e+01
flow[sink_24,sink_21] 1.9583531591493252e+01
flow[sink_21,sink_12] 3.2293649248265828e+00
flow[sink_7,sink_5] 1.6354166666667368e+01
flow[sink_5,sink_17] 0
flow[sink_17,sink_4] -1.1629147718621375e+01
flow[sink_17,sink_8] -4.7250189480452924e+00
flow[sink_3,sink_23] 16.3541666666697
flow[sink_8,sink_20] -2.1079185614711960e+01
flow[sink_25,sink_20] 5.3827928682082870e+01
flow[sink_25,sink_15] -7.0272211429128518e+01
flow[sink_15,sink_29] -1.0298054476247944e+02
flow[sink_29,sink_28] 1.6354166666667879e+01
flow[sink_29,sink_2] 0
flow[sink_2,sink_15] -1.6354166666684250e+01
flow[sink_29,innode_7] -1.3568887809581355e+02
flow[innode_4,sink_19] 5.0281588947323336e+01
flow[sink_19,innode_3] 4.6840721184812679e+01
flow[innode_4,innode_5] 7.8412659019488984e+01
flow[sink_27,innode_5] -7.8412659019488984e+01
flow[sink_27,sink_19] 6.2058492352822320e+01
flow[sink_10,sink_11] 3.2708333333333641e+01
flow[sink_10,innode_2] -49.145193448667
flow[sink_10,innode_3] -4.6840721184812679e+01
flow[innode_6,sink_25] 1.4215081300146039e+01
flow[sink_11,innode_1] 1.6354166666666970e+01
flow[sink_19,innode_2] 49.145193448667
flow[source_3,innode_4] 1.2869424796681233e+02
flow[source_2,innode_7] 1.3568887809581355e+02
flow[sink_3,innode_8] 1.6405457219555291e+02
pressure[innode_1] 76.2269869558628
pressure[innode_2] 7.8976214713525081e+01
pressure[innode_3] 7.8872491240597583e+01
pressure[innode_4] 81.01325
pressure[innode_5] 8.0959313638414073e+01
pressure[innode_6] 74.02620499782
pressure[innode_7] 81.01325
pressure[innode_8] 8.0355546772971309e+01
pressure[source_1] 81.01325
pressure[source_2] 81.01325
pressure[source_3] 81.01325
pressure[sink_1] 4.2366559723691921e+01
pressure[sink_2] 7.4313700948262010e+01
pressure[sink_3] 8.0355546772971309e+01
pressure[sink_4] 5.9991009031107950e+01
pressure[sink_5] 3.6723720920807466e+01
pressure[sink_6] 4.4467637334079292e+01
pressure[sink_7] 4.3525290947702182e+01
pressure[sink_8] 5.9724868591438636e+01
pressure[sink_9] 52.461593590468
pressure[sink_10] 7.6378688263466344e+01
pressure[sink_11] 76.2269869558628
pressure[sink_12] 1.01325
pressure[sink_13] 7.4104570365466941e+01
pressure[sink_14] 7.4159276638627716e+01
pressure[sink_15] 7.4367093698028455e+01
pressure[sink_16] 7.5205337121045119e+01
pressure[sink_17] 5.9546581351231517e+01
pressure[sink_18] 47.6108055919276
pressure[sink_19] 7.8976214713525081e+01
pressure[sink_20] 6.1193791386483426e+01
pressure[sink_21] 2.1624347840840894e+00
pressure[sink_22] 4.3430328866046928e+01
pressure[sink_23] 8.0190828761311522e+01
pressure[sink_24] 2.3793042011890182e+00
pressure[sink_25] 74.02620499782
pressure[sink_26] 6.1464431171460760e+01
pressure[sink_27] 8.0308633459566920e+01
pressure[sink_28] 7.7088821797889040e+01
pressure[sink_29] 7.7384104071506215e+01
interdiction[source_1,sink_3] 0
interdiction[innode_1,sink_16] 0
interdiction[innode_6,sink_13] 0
interdiction[sink_13,sink_14] 0
interdiction[sink_14,sink_10] 0
interdiction[sink_25,sink_26] 0
interdiction[sink_26,sink_9] 0
interdiction[sink_9,sink_18] 0
interdiction[sink_26,sink_4] 0
interdiction[sink_4,sink_20] 0
interdiction[sink_18,sink_6] 0
interdiction[sink_25,innode_8] 0
interdiction[sink_6,sink_7] 0
interdiction[sink_6,sink_22] 0
interdiction[sink_7,sink_24] 0
interdiction[sink_22,sink_1] 0
interdiction[sink_24,sink_21] 0
interdiction[sink_21,sink_12] 0
interdiction[sink_7,sink_5] 0
interdiction[sink_5,sink_17] 1
interdiction[sink_17,sink_4] 0
interdiction[sink_17,sink_8] 0
interdiction[sink_3,sink_23] 0
interdiction[sink_8,sink_20] 0
interdiction[sink_25,sink_20] 0
interdiction[sink_25,sink_15] 0
interdiction[sink_15,sink_29] 0
interdiction[sink_29,sink_28] 0
interdiction[sink_29,sink_2] 1
interdiction[sink_2,sink_15] 0
interdiction[sink_29,innode_7] 0
interdiction[innode_4,sink_19] 0
interdiction[sink_19,innode_3] 0
interdiction[innode_4,innode_5] 0
interdiction[sink_27,innode_5] 0
interdiction[sink_27,sink_19] 0
interdiction[sink_10,sink_11] 0
interdiction[sink_10,innode_2] 0
interdiction[sink_10,innode_3] 0
interdiction[innode_6,sink_25] 0
interdiction[sink_11,innode_1] 0
interdiction[sink_19,innode_2] 0
interdiction[source_3,innode_4] 0
interdiction[source_2,innode_7] 0
interdiction[sink_3,innode_8] 0
WCcheckFlow[source_1,sink_3] 39
WCcheckFlow[innode_1,sink_16] 1
WCcheckFlow[innode_6,sink_13] 13
WCcheckFlow[sink_13,sink_14] 12
WCcheckFlow[sink_14,sink_10] 11
WCcheckFlow[sink_25,sink_26] 15
WCcheckFlow[sink_26,sink_9] 10
WCcheckFlow[sink_9,sink_18] 9
WCcheckFlow[sink_26,sink_4] 4
WCcheckFlow[sink_4,sink_20] 1
WCcheckFlow[sink_18,sink_6] 8
WCcheckFlow[sink_25,innode_8] -36
WCcheckFlow[sink_6,sink_7] 5
WCcheckFlow[sink_6,sink_22] 2
WCcheckFlow[sink_7,sink_24] 3
WCcheckFlow[sink_22,sink_1] 1
WCcheckFlow[sink_24,sink_21] 2
WCcheckFlow[sink_21,sink_12] 1
WCcheckFlow[sink_7,sink_5] 1
WCcheckFlow[sink_5,sink_17] 0
WCcheckFlow[sink_17,sink_4] -2
WCcheckFlow[sink_17,sink_8] 1
WCcheckFlow[sink_3,sink_23] 1
WCcheckFlow[sink_8,sink_20] 0
WCcheckFlow[sink_25,sink_20] 0
WCcheckFlow[sink_25,sink_15] 6
WCcheckFlow[sink_15,sink_29] 4
WCcheckFlow[sink_29,sink_28] 1
WCcheckFlow[sink_29,sink_2] 0
WCcheckFlow[sink_2,sink_15] -1
WCcheckFlow[sink_29,innode_7] 2
WCcheckFlow[innode_4,sink_19] -4
WCcheckFlow[sink_19,innode_3] -5
WCcheckFlow[innode_4,innode_5] 2
WCcheckFlow[sink_27,innode_5] -1
WCcheckFlow[sink_27,sink_19] 0
WCcheckFlow[sink_10,sink_11] 3
WCcheckFlow[sink_10,innode_2] 1
WCcheckFlow[sink_10,innode_3] 6
WCcheckFlow[innode_6,sink_25] -14
WCcheckFlow[sink_11,innode_1] 2
WCcheckFlow[sink_19,innode_2] 0
WCcheckFlow[source_3,innode_4] -1
WCcheckFlow[source_2,innode_7] -1
WCcheckFlow[sink_3,innode_8] 37
